p cnf 90 2730
1 2 3 0
4 5 6 0
7 8 9 0
10 11 12 0
13 14 15 0
16 17 18 0
19 20 21 0
22 23 24 0
25 26 27 0
28 29 30 0
31 32 33 0
34 35 36 0
37 38 39 0
40 41 42 0
43 44 45 0
46 47 48 0
49 50 51 0
52 53 54 0
55 56 57 0
58 59 60 0
61 62 63 0
64 65 66 0
67 68 69 0
70 71 72 0
73 74 75 0
76 77 78 0
79 80 81 0
82 83 84 0
85 86 87 0
88 89 90 0
-1 -2 0
-1 -3 0
-2 -3 0
-4 -5 0
-4 -6 0
-5 -6 0
-7 -8 0
-7 -9 0
-8 -9 0
-10 -11 0
-10 -12 0
-11 -12 0
-13 -14 0
-13 -15 0
-14 -15 0
-16 -17 0
-16 -18 0
-17 -18 0
-19 -20 0
-19 -21 0
-20 -21 0
-22 -23 0
-22 -24 0
-23 -24 0
-25 -26 0
-25 -27 0
-26 -27 0
-28 -29 0
-28 -30 0
-29 -30 0
-31 -32 0
-31 -33 0
-32 -33 0
-34 -35 0
-34 -36 0
-35 -36 0
-37 -38 0
-37 -39 0
-38 -39 0
-40 -41 0
-40 -42 0
-41 -42 0
-43 -44 0
-43 -45 0
-44 -45 0
-46 -47 0
-46 -48 0
-47 -48 0
-49 -50 0
-49 -51 0
-50 -51 0
-52 -53 0
-52 -54 0
-53 -54 0
-55 -56 0
-55 -57 0
-56 -57 0
-58 -59 0
-58 -60 0
-59 -60 0
-61 -62 0
-61 -63 0
-62 -63 0
-64 -65 0
-64 -66 0
-65 -66 0
-67 -68 0
-67 -69 0
-68 -69 0
-70 -71 0
-70 -72 0
-71 -72 0
-73 -74 0
-73 -75 0
-74 -75 0
-76 -77 0
-76 -78 0
-77 -78 0
-79 -80 0
-79 -81 0
-80 -81 0
-82 -83 0
-82 -84 0
-83 -84 0
-85 -86 0
-85 -87 0
-86 -87 0
-88 -89 0
-88 -90 0
-89 -90 0
-1 4 5 6 0
-2 4 5 6 0
-3 4 5 6 0
-1 7 8 9 0
-2 7 8 9 0
-3 7 8 9 0
-1 10 11 12 0
-2 10 11 12 0
-3 10 11 12 0
-1 13 14 15 0
-2 13 14 15 0
-3 13 14 15 0
-1 16 17 18 0
-2 16 17 18 0
-3 16 17 18 0
-1 19 20 21 0
-2 19 20 21 0
-3 19 20 21 0
-1 22 23 24 0
-2 22 23 24 0
-3 22 23 24 0
-1 26 27 0
-2 25 27 0
-3 25 26 0
-1 28 29 30 0
-2 28 29 30 0
-3 28 29 30 0
-1 31 32 33 0
-2 31 32 33 0
-3 31 32 33 0
-1 34 35 36 0
-2 34 35 36 0
-3 34 35 36 0
-1 37 38 39 0
-2 37 38 39 0
-3 37 38 39 0
-1 41 42 0
-2 40 42 0
-3 40 41 0
-1 43 44 45 0
-2 43 44 45 0
-3 43 44 45 0
-1 46 47 48 0
-2 46 47 48 0
-3 46 47 48 0
-1 50 51 0
-2 49 51 0
-3 49 50 0
-1 52 53 54 0
-2 52 53 54 0
-3 52 53 54 0
-1 55 56 57 0
-2 55 56 57 0
-3 55 56 57 0
-1 58 59 60 0
-2 58 59 60 0
-3 58 59 60 0
-1 61 62 63 0
-2 61 62 63 0
-3 61 62 63 0
-1 65 66 0
-2 64 66 0
-3 64 65 0
-1 67 68 69 0
-2 67 68 69 0
-3 67 68 69 0
-1 70 71 72 0
-2 70 71 72 0
-3 70 71 72 0
-1 74 75 0
-2 73 75 0
-3 73 74 0
-1 76 77 78 0
-2 76 77 78 0
-3 76 77 78 0
-1 79 80 81 0
-2 79 80 81 0
-3 79 80 81 0
-1 82 83 84 0
-2 82 83 84 0
-3 82 83 84 0
-1 85 86 87 0
-2 85 86 87 0
-3 85 86 87 0
-1 88 89 90 0
-2 88 89 90 0
-3 88 89 90 0
-4 1 2 3 0
-5 1 2 3 0
-6 1 2 3 0
-4 7 8 9 0
-5 7 8 9 0
-6 7 8 9 0
-4 10 11 12 0
-5 10 11 12 0
-6 10 11 12 0
-4 13 14 15 0
-5 13 14 15 0
-6 13 14 15 0
-4 17 18 0
-5 16 18 0
-6 16 17 0
-4 19 20 21 0
-5 19 20 21 0
-6 19 20 21 0
-4 23 24 0
-5 22 24 0
-6 22 23 0
-4 26 27 0
-5 25 27 0
-6 25 26 0
-4 28 29 30 0
-5 28 29 30 0
-6 28 29 30 0
-4 31 32 33 0
-5 31 32 33 0
-6 31 32 33 0
-4 34 35 36 0
-5 34 35 36 0
-6 34 35 36 0
-4 37 38 39 0
-5 37 38 39 0
-6 37 38 39 0
-4 40 41 42 0
-5 40 41 42 0
-6 40 41 42 0
-4 43 44 45 0
-5 43 44 45 0
-6 43 44 45 0
-4 46 47 48 0
-5 46 47 48 0
-6 46 47 48 0
-4 49 50 51 0
-5 49 50 51 0
-6 49 50 51 0
-4 52 53 54 0
-5 52 53 54 0
-6 52 53 54 0
-4 55 56 57 0
-5 55 56 57 0
-6 55 56 57 0
-4 58 59 60 0
-5 58 59 60 0
-6 58 59 60 0
-4 61 62 63 0
-5 61 62 63 0
-6 61 62 63 0
-4 65 66 0
-5 64 66 0
-6 64 65 0
-4 68 69 0
-5 67 69 0
-6 67 68 0
-4 70 71 72 0
-5 70 71 72 0
-6 70 71 72 0
-4 73 74 75 0
-5 73 74 75 0
-6 73 74 75 0
-4 76 77 78 0
-5 76 77 78 0
-6 76 77 78 0
-4 79 80 81 0
-5 79 80 81 0
-6 79 80 81 0
-4 82 83 84 0
-5 82 83 84 0
-6 82 83 84 0
-4 85 86 87 0
-5 85 86 87 0
-6 85 86 87 0
-4 88 89 90 0
-5 88 89 90 0
-6 88 89 90 0
-7 1 2 3 0
-8 1 2 3 0
-9 1 2 3 0
-7 4 5 6 0
-8 4 5 6 0
-9 4 5 6 0
-7 10 11 12 0
-8 10 11 12 0
-9 10 11 12 0
-7 13 14 15 0
-8 13 14 15 0
-9 13 14 15 0
-7 16 17 18 0
-8 16 17 18 0
-9 16 17 18 0
-7 20 21 0
-8 19 21 0
-9 19 20 0
-7 22 23 24 0
-8 22 23 24 0
-9 22 23 24 0
-7 26 27 0
-8 25 27 0
-9 25 26 0
-7 28 29 30 0
-8 28 29 30 0
-9 28 29 30 0
-7 31 32 33 0
-8 31 32 33 0
-9 31 32 33 0
-7 34 35 36 0
-8 34 35 36 0
-9 34 35 36 0
-7 38 39 0
-8 37 39 0
-9 37 38 0
-7 40 41 42 0
-8 40 41 42 0
-9 40 41 42 0
-7 43 44 45 0
-8 43 44 45 0
-9 43 44 45 0
-7 46 47 48 0
-8 46 47 48 0
-9 46 47 48 0
-7 49 50 51 0
-8 49 50 51 0
-9 49 50 51 0
-7 53 54 0
-8 52 54 0
-9 52 53 0
-7 56 57 0
-8 55 57 0
-9 55 56 0
-7 58 59 60 0
-8 58 59 60 0
-9 58 59 60 0
-7 61 62 63 0
-8 61 62 63 0
-9 61 62 63 0
-7 65 66 0
-8 64 66 0
-9 64 65 0
-7 67 68 69 0
-8 67 68 69 0
-9 67 68 69 0
-7 70 71 72 0
-8 70 71 72 0
-9 70 71 72 0
-7 73 74 75 0
-8 73 74 75 0
-9 73 74 75 0
-7 76 77 78 0
-8 76 77 78 0
-9 76 77 78 0
-7 79 80 81 0
-8 79 80 81 0
-9 79 80 81 0
-7 82 83 84 0
-8 82 83 84 0
-9 82 83 84 0
-7 85 86 87 0
-8 85 86 87 0
-9 85 86 87 0
-7 88 89 90 0
-8 88 89 90 0
-9 88 89 90 0
-10 1 2 3 0
-11 1 2 3 0
-12 1 2 3 0
-10 4 5 6 0
-11 4 5 6 0
-12 4 5 6 0
-10 7 8 9 0
-11 7 8 9 0
-12 7 8 9 0
-10 13 14 15 0
-11 13 14 15 0
-12 13 14 15 0
-10 17 18 0
-11 16 18 0
-12 16 17 0
-10 19 20 21 0
-11 19 20 21 0
-12 19 20 21 0
-10 22 23 24 0
-11 22 23 24 0
-12 22 23 24 0
-10 26 27 0
-11 25 27 0
-12 25 26 0
-10 28 29 30 0
-11 28 29 30 0
-12 28 29 30 0
-10 31 32 33 0
-11 31 32 33 0
-12 31 32 33 0
-10 34 35 36 0
-11 34 35 36 0
-12 34 35 36 0
-10 37 38 39 0
-11 37 38 39 0
-12 37 38 39 0
-10 40 41 42 0
-11 40 41 42 0
-12 40 41 42 0
-10 44 45 0
-11 43 45 0
-12 43 44 0
-10 46 47 48 0
-11 46 47 48 0
-12 46 47 48 0
-10 49 50 51 0
-11 49 50 51 0
-12 49 50 51 0
-10 52 53 54 0
-11 52 53 54 0
-12 52 53 54 0
-10 55 56 57 0
-11 55 56 57 0
-12 55 56 57 0
-10 58 59 60 0
-11 58 59 60 0
-12 58 59 60 0
-10 62 63 0
-11 61 63 0
-12 61 62 0
-10 65 66 0
-11 64 66 0
-12 64 65 0
-10 67 68 69 0
-11 67 68 69 0
-12 67 68 69 0
-10 71 72 0
-11 70 72 0
-12 70 71 0
-10 74 75 0
-11 73 75 0
-12 73 74 0
-10 76 77 78 0
-11 76 77 78 0
-12 76 77 78 0
-10 80 81 0
-11 79 81 0
-12 79 80 0
-10 82 83 84 0
-11 82 83 84 0
-12 82 83 84 0
-10 85 86 87 0
-11 85 86 87 0
-12 85 86 87 0
-10 88 89 90 0
-11 88 89 90 0
-12 88 89 90 0
-13 1 2 3 0
-14 1 2 3 0
-15 1 2 3 0
-13 4 5 6 0
-14 4 5 6 0
-15 4 5 6 0
-13 7 8 9 0
-14 7 8 9 0
-15 7 8 9 0
-13 10 11 12 0
-14 10 11 12 0
-15 10 11 12 0
-13 16 17 18 0
-14 16 17 18 0
-15 16 17 18 0
-13 20 21 0
-14 19 21 0
-15 19 20 0
-13 22 23 24 0
-14 22 23 24 0
-15 22 23 24 0
-13 25 26 27 0
-14 25 26 27 0
-15 25 26 27 0
-13 28 29 30 0
-14 28 29 30 0
-15 28 29 30 0
-13 32 33 0
-14 31 33 0
-15 31 32 0
-13 34 35 36 0
-14 34 35 36 0
-15 34 35 36 0
-13 38 39 0
-14 37 39 0
-15 37 38 0
-13 40 41 42 0
-14 40 41 42 0
-15 40 41 42 0
-13 43 44 45 0
-14 43 44 45 0
-15 43 44 45 0
-13 46 47 48 0
-14 46 47 48 0
-15 46 47 48 0
-13 49 50 51 0
-14 49 50 51 0
-15 49 50 51 0
-13 52 53 54 0
-14 52 53 54 0
-15 52 53 54 0
-13 55 56 57 0
-14 55 56 57 0
-15 55 56 57 0
-13 58 59 60 0
-14 58 59 60 0
-15 58 59 60 0
-13 61 62 63 0
-14 61 62 63 0
-15 61 62 63 0
-13 64 65 66 0
-14 64 65 66 0
-15 64 65 66 0
-13 67 68 69 0
-14 67 68 69 0
-15 67 68 69 0
-13 70 71 72 0
-14 70 71 72 0
-15 70 71 72 0
-13 73 74 75 0
-14 73 74 75 0
-15 73 74 75 0
-13 76 77 78 0
-14 76 77 78 0
-15 76 77 78 0
-13 80 81 0
-14 79 81 0
-15 79 80 0
-13 82 83 84 0
-14 82 83 84 0
-15 82 83 84 0
-13 85 86 87 0
-14 85 86 87 0
-15 85 86 87 0
-13 88 89 90 0
-14 88 89 90 0
-15 88 89 90 0
-16 1 2 3 0
-17 1 2 3 0
-18 1 2 3 0
-16 5 6 0
-17 4 6 0
-18 4 5 0
-16 7 8 9 0
-17 7 8 9 0
-18 7 8 9 0
-16 11 12 0
-17 10 12 0
-18 10 11 0
-16 13 14 15 0
-17 13 14 15 0
-18 13 14 15 0
-16 19 20 21 0
-17 19 20 21 0
-18 19 20 21 0
-16 22 23 24 0
-17 22 23 24 0
-18 22 23 24 0
-16 25 26 27 0
-17 25 26 27 0
-18 25 26 27 0
-16 28 29 30 0
-17 28 29 30 0
-18 28 29 30 0
-16 31 32 33 0
-17 31 32 33 0
-18 31 32 33 0
-16 34 35 36 0
-17 34 35 36 0
-18 34 35 36 0
-16 37 38 39 0
-17 37 38 39 0
-18 37 38 39 0
-16 40 41 42 0
-17 40 41 42 0
-18 40 41 42 0
-16 43 44 45 0
-17 43 44 45 0
-18 43 44 45 0
-16 46 47 48 0
-17 46 47 48 0
-18 46 47 48 0
-16 49 50 51 0
-17 49 50 51 0
-18 49 50 51 0
-16 53 54 0
-17 52 54 0
-18 52 53 0
-16 55 56 57 0
-17 55 56 57 0
-18 55 56 57 0
-16 58 59 60 0
-17 58 59 60 0
-18 58 59 60 0
-16 61 62 63 0
-17 61 62 63 0
-18 61 62 63 0
-16 64 65 66 0
-17 64 65 66 0
-18 64 65 66 0
-16 67 68 69 0
-17 67 68 69 0
-18 67 68 69 0
-16 70 71 72 0
-17 70 71 72 0
-18 70 71 72 0
-16 73 74 75 0
-17 73 74 75 0
-18 73 74 75 0
-16 77 78 0
-17 76 78 0
-18 76 77 0
-16 79 80 81 0
-17 79 80 81 0
-18 79 80 81 0
-16 82 83 84 0
-17 82 83 84 0
-18 82 83 84 0
-16 85 86 87 0
-17 85 86 87 0
-18 85 86 87 0
-16 88 89 90 0
-17 88 89 90 0
-18 88 89 90 0
-19 1 2 3 0
-20 1 2 3 0
-21 1 2 3 0
-19 4 5 6 0
-20 4 5 6 0
-21 4 5 6 0
-19 8 9 0
-20 7 9 0
-21 7 8 0
-19 10 11 12 0
-20 10 11 12 0
-21 10 11 12 0
-19 14 15 0
-20 13 15 0
-21 13 14 0
-19 16 17 18 0
-20 16 17 18 0
-21 16 17 18 0
-19 22 23 24 0
-20 22 23 24 0
-21 22 23 24 0
-19 26 27 0
-20 25 27 0
-21 25 26 0
-19 28 29 30 0
-20 28 29 30 0
-21 28 29 30 0
-19 31 32 33 0
-20 31 32 33 0
-21 31 32 33 0
-19 34 35 36 0
-20 34 35 36 0
-21 34 35 36 0
-19 37 38 39 0
-20 37 38 39 0
-21 37 38 39 0
-19 40 41 42 0
-20 40 41 42 0
-21 40 41 42 0
-19 43 44 45 0
-20 43 44 45 0
-21 43 44 45 0
-19 46 47 48 0
-20 46 47 48 0
-21 46 47 48 0
-19 49 50 51 0
-20 49 50 51 0
-21 49 50 51 0
-19 53 54 0
-20 52 54 0
-21 52 53 0
-19 55 56 57 0
-20 55 56 57 0
-21 55 56 57 0
-19 58 59 60 0
-20 58 59 60 0
-21 58 59 60 0
-19 61 62 63 0
-20 61 62 63 0
-21 61 62 63 0
-19 65 66 0
-20 64 66 0
-21 64 65 0
-19 67 68 69 0
-20 67 68 69 0
-21 67 68 69 0
-19 70 71 72 0
-20 70 71 72 0
-21 70 71 72 0
-19 74 75 0
-20 73 75 0
-21 73 74 0
-19 76 77 78 0
-20 76 77 78 0
-21 76 77 78 0
-19 79 80 81 0
-20 79 80 81 0
-21 79 80 81 0
-19 83 84 0
-20 82 84 0
-21 82 83 0
-19 85 86 87 0
-20 85 86 87 0
-21 85 86 87 0
-19 88 89 90 0
-20 88 89 90 0
-21 88 89 90 0
-22 1 2 3 0
-23 1 2 3 0
-24 1 2 3 0
-22 5 6 0
-23 4 6 0
-24 4 5 0
-22 7 8 9 0
-23 7 8 9 0
-24 7 8 9 0
-22 10 11 12 0
-23 10 11 12 0
-24 10 11 12 0
-22 13 14 15 0
-23 13 14 15 0
-24 13 14 15 0
-22 16 17 18 0
-23 16 17 18 0
-24 16 17 18 0
-22 19 20 21 0
-23 19 20 21 0
-24 19 20 21 0
-22 26 27 0
-23 25 27 0
-24 25 26 0
-22 28 29 30 0
-23 28 29 30 0
-24 28 29 30 0
-22 31 32 33 0
-23 31 32 33 0
-24 31 32 33 0
-22 34 35 36 0
-23 34 35 36 0
-24 34 35 36 0
-22 37 38 39 0
-23 37 38 39 0
-24 37 38 39 0
-22 40 41 42 0
-23 40 41 42 0
-24 40 41 42 0
-22 44 45 0
-23 43 45 0
-24 43 44 0
-22 46 47 48 0
-23 46 47 48 0
-24 46 47 48 0
-22 50 51 0
-23 49 51 0
-24 49 50 0
-22 52 53 54 0
-23 52 53 54 0
-24 52 53 54 0
-22 55 56 57 0
-23 55 56 57 0
-24 55 56 57 0
-22 58 59 60 0
-23 58 59 60 0
-24 58 59 60 0
-22 61 62 63 0
-23 61 62 63 0
-24 61 62 63 0
-22 64 65 66 0
-23 64 65 66 0
-24 64 65 66 0
-22 67 68 69 0
-23 67 68 69 0
-24 67 68 69 0
-22 71 72 0
-23 70 72 0
-24 70 71 0
-22 74 75 0
-23 73 75 0
-24 73 74 0
-22 76 77 78 0
-23 76 77 78 0
-24 76 77 78 0
-22 79 80 81 0
-23 79 80 81 0
-24 79 80 81 0
-22 82 83 84 0
-23 82 83 84 0
-24 82 83 84 0
-22 85 86 87 0
-23 85 86 87 0
-24 85 86 87 0
-22 88 89 90 0
-23 88 89 90 0
-24 88 89 90 0
-25 2 3 0
-26 1 3 0
-27 1 2 0
-25 5 6 0
-26 4 6 0
-27 4 5 0
-25 8 9 0
-26 7 9 0
-27 7 8 0
-25 11 12 0
-26 10 12 0
-27 10 11 0
-25 13 14 15 0
-26 13 14 15 0
-27 13 14 15 0
-25 16 17 18 0
-26 16 17 18 0
-27 16 17 18 0
-25 20 21 0
-26 19 21 0
-27 19 20 0
-25 23 24 0
-26 22 24 0
-27 22 23 0
-25 28 29 30 0
-26 28 29 30 0
-27 28 29 30 0
-25 31 32 33 0
-26 31 32 33 0
-27 31 32 33 0
-25 34 35 36 0
-26 34 35 36 0
-27 34 35 36 0
-25 37 38 39 0
-26 37 38 39 0
-27 37 38 39 0
-25 40 41 42 0
-26 40 41 42 0
-27 40 41 42 0
-25 43 44 45 0
-26 43 44 45 0
-27 43 44 45 0
-25 46 47 48 0
-26 46 47 48 0
-27 46 47 48 0
-25 49 50 51 0
-26 49 50 51 0
-27 49 50 51 0
-25 52 53 54 0
-26 52 53 54 0
-27 52 53 54 0
-25 56 57 0
-26 55 57 0
-27 55 56 0
-25 58 59 60 0
-26 58 59 60 0
-27 58 59 60 0
-25 61 62 63 0
-26 61 62 63 0
-27 61 62 63 0
-25 64 65 66 0
-26 64 65 66 0
-27 64 65 66 0
-25 67 68 69 0
-26 67 68 69 0
-27 67 68 69 0
-25 70 71 72 0
-26 70 71 72 0
-27 70 71 72 0
-25 73 74 75 0
-26 73 74 75 0
-27 73 74 75 0
-25 76 77 78 0
-26 76 77 78 0
-27 76 77 78 0
-25 79 80 81 0
-26 79 80 81 0
-27 79 80 81 0
-25 82 83 84 0
-26 82 83 84 0
-27 82 83 84 0
-25 85 86 87 0
-26 85 86 87 0
-27 85 86 87 0
-25 88 89 90 0
-26 88 89 90 0
-27 88 89 90 0
-28 1 2 3 0
-29 1 2 3 0
-30 1 2 3 0
-28 4 5 6 0
-29 4 5 6 0
-30 4 5 6 0
-28 7 8 9 0
-29 7 8 9 0
-30 7 8 9 0
-28 10 11 12 0
-29 10 11 12 0
-30 10 11 12 0
-28 13 14 15 0
-29 13 14 15 0
-30 13 14 15 0
-28 16 17 18 0
-29 16 17 18 0
-30 16 17 18 0
-28 19 20 21 0
-29 19 20 21 0
-30 19 20 21 0
-28 22 23 24 0
-29 22 23 24 0
-30 22 23 24 0
-28 25 26 27 0
-29 25 26 27 0
-30 25 26 27 0
-28 31 32 33 0
-29 31 32 33 0
-30 31 32 33 0
-28 34 35 36 0
-29 34 35 36 0
-30 34 35 36 0
-28 37 38 39 0
-29 37 38 39 0
-30 37 38 39 0
-28 40 41 42 0
-29 40 41 42 0
-30 40 41 42 0
-28 43 44 45 0
-29 43 44 45 0
-30 43 44 45 0
-28 46 47 48 0
-29 46 47 48 0
-30 46 47 48 0
-28 49 50 51 0
-29 49 50 51 0
-30 49 50 51 0
-28 52 53 54 0
-29 52 53 54 0
-30 52 53 54 0
-28 55 56 57 0
-29 55 56 57 0
-30 55 56 57 0
-28 58 59 60 0
-29 58 59 60 0
-30 58 59 60 0
-28 61 62 63 0
-29 61 62 63 0
-30 61 62 63 0
-28 65 66 0
-29 64 66 0
-30 64 65 0
-28 67 68 69 0
-29 67 68 69 0
-30 67 68 69 0
-28 70 71 72 0
-29 70 71 72 0
-30 70 71 72 0
-28 73 74 75 0
-29 73 74 75 0
-30 73 74 75 0
-28 76 77 78 0
-29 76 77 78 0
-30 76 77 78 0
-28 79 80 81 0
-29 79 80 81 0
-30 79 80 81 0
-28 82 83 84 0
-29 82 83 84 0
-30 82 83 84 0
-28 86 87 0
-29 85 87 0
-30 85 86 0
-28 88 89 90 0
-29 88 89 90 0
-30 88 89 90 0
-31 1 2 3 0
-32 1 2 3 0
-33 1 2 3 0
-31 4 5 6 0
-32 4 5 6 0
-33 4 5 6 0
-31 7 8 9 0
-32 7 8 9 0
-33 7 8 9 0
-31 10 11 12 0
-32 10 11 12 0
-33 10 11 12 0
-31 14 15 0
-32 13 15 0
-33 13 14 0
-31 16 17 18 0
-32 16 17 18 0
-33 16 17 18 0
-31 19 20 21 0
-32 19 20 21 0
-33 19 20 21 0
-31 22 23 24 0
-32 22 23 24 0
-33 22 23 24 0
-31 25 26 27 0
-32 25 26 27 0
-33 25 26 27 0
-31 28 29 30 0
-32 28 29 30 0
-33 28 29 30 0
-31 35 36 0
-32 34 36 0
-33 34 35 0
-31 37 38 39 0
-32 37 38 39 0
-33 37 38 39 0
-31 40 41 42 0
-32 40 41 42 0
-33 40 41 42 0
-31 44 45 0
-32 43 45 0
-33 43 44 0
-31 47 48 0
-32 46 48 0
-33 46 47 0
-31 49 50 51 0
-32 49 50 51 0
-33 49 50 51 0
-31 52 53 54 0
-32 52 53 54 0
-33 52 53 54 0
-31 55 56 57 0
-32 55 56 57 0
-33 55 56 57 0
-31 58 59 60 0
-32 58 59 60 0
-33 58 59 60 0
-31 61 62 63 0
-32 61 62 63 0
-33 61 62 63 0
-31 64 65 66 0
-32 64 65 66 0
-33 64 65 66 0
-31 67 68 69 0
-32 67 68 69 0
-33 67 68 69 0
-31 70 71 72 0
-32 70 71 72 0
-33 70 71 72 0
-31 73 74 75 0
-32 73 74 75 0
-33 73 74 75 0
-31 76 77 78 0
-32 76 77 78 0
-33 76 77 78 0
-31 79 80 81 0
-32 79 80 81 0
-33 79 80 81 0
-31 82 83 84 0
-32 82 83 84 0
-33 82 83 84 0
-31 85 86 87 0
-32 85 86 87 0
-33 85 86 87 0
-31 88 89 90 0
-32 88 89 90 0
-33 88 89 90 0
-34 1 2 3 0
-35 1 2 3 0
-36 1 2 3 0
-34 4 5 6 0
-35 4 5 6 0
-36 4 5 6 0
-34 7 8 9 0
-35 7 8 9 0
-36 7 8 9 0
-34 10 11 12 0
-35 10 11 12 0
-36 10 11 12 0
-34 13 14 15 0
-35 13 14 15 0
-36 13 14 15 0
-34 16 17 18 0
-35 16 17 18 0
-36 16 17 18 0
-34 19 20 21 0
-35 19 20 21 0
-36 19 20 21 0
-34 22 23 24 0
-35 22 23 24 0
-36 22 23 24 0
-34 25 26 27 0
-35 25 26 27 0
-36 25 26 27 0
-34 28 29 30 0
-35 28 29 30 0
-36 28 29 30 0
-34 32 33 0
-35 31 33 0
-36 31 32 0
-34 37 38 39 0
-35 37 38 39 0
-36 37 38 39 0
-34 40 41 42 0
-35 40 41 42 0
-36 40 41 42 0
-34 43 44 45 0
-35 43 44 45 0
-36 43 44 45 0
-34 46 47 48 0
-35 46 47 48 0
-36 46 47 48 0
-34 49 50 51 0
-35 49 50 51 0
-36 49 50 51 0
-34 52 53 54 0
-35 52 53 54 0
-36 52 53 54 0
-34 55 56 57 0
-35 55 56 57 0
-36 55 56 57 0
-34 58 59 60 0
-35 58 59 60 0
-36 58 59 60 0
-34 61 62 63 0
-35 61 62 63 0
-36 61 62 63 0
-34 65 66 0
-35 64 66 0
-36 64 65 0
-34 68 69 0
-35 67 69 0
-36 67 68 0
-34 70 71 72 0
-35 70 71 72 0
-36 70 71 72 0
-34 73 74 75 0
-35 73 74 75 0
-36 73 74 75 0
-34 76 77 78 0
-35 76 77 78 0
-36 76 77 78 0
-34 80 81 0
-35 79 81 0
-36 79 80 0
-34 83 84 0
-35 82 84 0
-36 82 83 0
-34 86 87 0
-35 85 87 0
-36 85 86 0
-34 88 89 90 0
-35 88 89 90 0
-36 88 89 90 0
-37 1 2 3 0
-38 1 2 3 0
-39 1 2 3 0
-37 4 5 6 0
-38 4 5 6 0
-39 4 5 6 0
-37 8 9 0
-38 7 9 0
-39 7 8 0
-37 10 11 12 0
-38 10 11 12 0
-39 10 11 12 0
-37 14 15 0
-38 13 15 0
-39 13 14 0
-37 16 17 18 0
-38 16 17 18 0
-39 16 17 18 0
-37 19 20 21 0
-38 19 20 21 0
-39 19 20 21 0
-37 22 23 24 0
-38 22 23 24 0
-39 22 23 24 0
-37 25 26 27 0
-38 25 26 27 0
-39 25 26 27 0
-37 28 29 30 0
-38 28 29 30 0
-39 28 29 30 0
-37 31 32 33 0
-38 31 32 33 0
-39 31 32 33 0
-37 34 35 36 0
-38 34 35 36 0
-39 34 35 36 0
-37 40 41 42 0
-38 40 41 42 0
-39 40 41 42 0
-37 44 45 0
-38 43 45 0
-39 43 44 0
-37 46 47 48 0
-38 46 47 48 0
-39 46 47 48 0
-37 49 50 51 0
-38 49 50 51 0
-39 49 50 51 0
-37 52 53 54 0
-38 52 53 54 0
-39 52 53 54 0
-37 56 57 0
-38 55 57 0
-39 55 56 0
-37 58 59 60 0
-38 58 59 60 0
-39 58 59 60 0
-37 61 62 63 0
-38 61 62 63 0
-39 61 62 63 0
-37 64 65 66 0
-38 64 65 66 0
-39 64 65 66 0
-37 67 68 69 0
-38 67 68 69 0
-39 67 68 69 0
-37 70 71 72 0
-38 70 71 72 0
-39 70 71 72 0
-37 74 75 0
-38 73 75 0
-39 73 74 0
-37 76 77 78 0
-38 76 77 78 0
-39 76 77 78 0
-37 79 80 81 0
-38 79 80 81 0
-39 79 80 81 0
-37 82 83 84 0
-38 82 83 84 0
-39 82 83 84 0
-37 86 87 0
-38 85 87 0
-39 85 86 0
-37 89 90 0
-38 88 90 0
-39 88 89 0
-40 2 3 0
-41 1 3 0
-42 1 2 0
-40 4 5 6 0
-41 4 5 6 0
-42 4 5 6 0
-40 7 8 9 0
-41 7 8 9 0
-42 7 8 9 0
-40 10 11 12 0
-41 10 11 12 0
-42 10 11 12 0
-40 13 14 15 0
-41 13 14 15 0
-42 13 14 15 0
-40 16 17 18 0
-41 16 17 18 0
-42 16 17 18 0
-40 19 20 21 0
-41 19 20 21 0
-42 19 20 21 0
-40 22 23 24 0
-41 22 23 24 0
-42 22 23 24 0
-40 25 26 27 0
-41 25 26 27 0
-42 25 26 27 0
-40 28 29 30 0
-41 28 29 30 0
-42 28 29 30 0
-40 31 32 33 0
-41 31 32 33 0
-42 31 32 33 0
-40 34 35 36 0
-41 34 35 36 0
-42 34 35 36 0
-40 37 38 39 0
-41 37 38 39 0
-42 37 38 39 0
-40 44 45 0
-41 43 45 0
-42 43 44 0
-40 46 47 48 0
-41 46 47 48 0
-42 46 47 48 0
-40 49 50 51 0
-41 49 50 51 0
-42 49 50 51 0
-40 52 53 54 0
-41 52 53 54 0
-42 52 53 54 0
-40 56 57 0
-41 55 57 0
-42 55 56 0
-40 59 60 0
-41 58 60 0
-42 58 59 0
-40 61 62 63 0
-41 61 62 63 0
-42 61 62 63 0
-40 64 65 66 0
-41 64 65 66 0
-42 64 65 66 0
-40 67 68 69 0
-41 67 68 69 0
-42 67 68 69 0
-40 70 71 72 0
-41 70 71 72 0
-42 70 71 72 0
-40 73 74 75 0
-41 73 74 75 0
-42 73 74 75 0
-40 76 77 78 0
-41 76 77 78 0
-42 76 77 78 0
-40 80 81 0
-41 79 81 0
-42 79 80 0
-40 82 83 84 0
-41 82 83 84 0
-42 82 83 84 0
-40 85 86 87 0
-41 85 86 87 0
-42 85 86 87 0
-40 89 90 0
-41 88 90 0
-42 88 89 0
-43 1 2 3 0
-44 1 2 3 0
-45 1 2 3 0
-43 4 5 6 0
-44 4 5 6 0
-45 4 5 6 0
-43 7 8 9 0
-44 7 8 9 0
-45 7 8 9 0
-43 11 12 0
-44 10 12 0
-45 10 11 0
-43 13 14 15 0
-44 13 14 15 0
-45 13 14 15 0
-43 16 17 18 0
-44 16 17 18 0
-45 16 17 18 0
-43 19 20 21 0
-44 19 20 21 0
-45 19 20 21 0
-43 23 24 0
-44 22 24 0
-45 22 23 0
-43 25 26 27 0
-44 25 26 27 0
-45 25 26 27 0
-43 28 29 30 0
-44 28 29 30 0
-45 28 29 30 0
-43 32 33 0
-44 31 33 0
-45 31 32 0
-43 34 35 36 0
-44 34 35 36 0
-45 34 35 36 0
-43 38 39 0
-44 37 39 0
-45 37 38 0
-43 41 42 0
-44 40 42 0
-45 40 41 0
-43 47 48 0
-44 46 48 0
-45 46 47 0
-43 49 50 51 0
-44 49 50 51 0
-45 49 50 51 0
-43 52 53 54 0
-44 52 53 54 0
-45 52 53 54 0
-43 55 56 57 0
-44 55 56 57 0
-45 55 56 57 0
-43 58 59 60 0
-44 58 59 60 0
-45 58 59 60 0
-43 61 62 63 0
-44 61 62 63 0
-45 61 62 63 0
-43 64 65 66 0
-44 64 65 66 0
-45 64 65 66 0
-43 67 68 69 0
-44 67 68 69 0
-45 67 68 69 0
-43 70 71 72 0
-44 70 71 72 0
-45 70 71 72 0
-43 74 75 0
-44 73 75 0
-45 73 74 0
-43 76 77 78 0
-44 76 77 78 0
-45 76 77 78 0
-43 80 81 0
-44 79 81 0
-45 79 80 0
-43 82 83 84 0
-44 82 83 84 0
-45 82 83 84 0
-43 85 86 87 0
-44 85 86 87 0
-45 85 86 87 0
-43 88 89 90 0
-44 88 89 90 0
-45 88 89 90 0
-46 1 2 3 0
-47 1 2 3 0
-48 1 2 3 0
-46 4 5 6 0
-47 4 5 6 0
-48 4 5 6 0
-46 7 8 9 0
-47 7 8 9 0
-48 7 8 9 0
-46 10 11 12 0
-47 10 11 12 0
-48 10 11 12 0
-46 13 14 15 0
-47 13 14 15 0
-48 13 14 15 0
-46 16 17 18 0
-47 16 17 18 0
-48 16 17 18 0
-46 19 20 21 0
-47 19 20 21 0
-48 19 20 21 0
-46 22 23 24 0
-47 22 23 24 0
-48 22 23 24 0
-46 25 26 27 0
-47 25 26 27 0
-48 25 26 27 0
-46 28 29 30 0
-47 28 29 30 0
-48 28 29 30 0
-46 32 33 0
-47 31 33 0
-48 31 32 0
-46 34 35 36 0
-47 34 35 36 0
-48 34 35 36 0
-46 37 38 39 0
-47 37 38 39 0
-48 37 38 39 0
-46 40 41 42 0
-47 40 41 42 0
-48 40 41 42 0
-46 44 45 0
-47 43 45 0
-48 43 44 0
-46 49 50 51 0
-47 49 50 51 0
-48 49 50 51 0
-46 53 54 0
-47 52 54 0
-48 52 53 0
-46 55 56 57 0
-47 55 56 57 0
-48 55 56 57 0
-46 58 59 60 0
-47 58 59 60 0
-48 58 59 60 0
-46 61 62 63 0
-47 61 62 63 0
-48 61 62 63 0
-46 64 65 66 0
-47 64 65 66 0
-48 64 65 66 0
-46 67 68 69 0
-47 67 68 69 0
-48 67 68 69 0
-46 71 72 0
-47 70 72 0
-48 70 71 0
-46 73 74 75 0
-47 73 74 75 0
-48 73 74 75 0
-46 76 77 78 0
-47 76 77 78 0
-48 76 77 78 0
-46 79 80 81 0
-47 79 80 81 0
-48 79 80 81 0
-46 82 83 84 0
-47 82 83 84 0
-48 82 83 84 0
-46 85 86 87 0
-47 85 86 87 0
-48 85 86 87 0
-46 88 89 90 0
-47 88 89 90 0
-48 88 89 90 0
-49 2 3 0
-50 1 3 0
-51 1 2 0
-49 4 5 6 0
-50 4 5 6 0
-51 4 5 6 0
-49 7 8 9 0
-50 7 8 9 0
-51 7 8 9 0
-49 10 11 12 0
-50 10 11 12 0
-51 10 11 12 0
-49 13 14 15 0
-50 13 14 15 0
-51 13 14 15 0
-49 16 17 18 0
-50 16 17 18 0
-51 16 17 18 0
-49 19 20 21 0
-50 19 20 21 0
-51 19 20 21 0
-49 23 24 0
-50 22 24 0
-51 22 23 0
-49 25 26 27 0
-50 25 26 27 0
-51 25 26 27 0
-49 28 29 30 0
-50 28 29 30 0
-51 28 29 30 0
-49 31 32 33 0
-50 31 32 33 0
-51 31 32 33 0
-49 34 35 36 0
-50 34 35 36 0
-51 34 35 36 0
-49 37 38 39 0
-50 37 38 39 0
-51 37 38 39 0
-49 40 41 42 0
-50 40 41 42 0
-51 40 41 42 0
-49 43 44 45 0
-50 43 44 45 0
-51 43 44 45 0
-49 46 47 48 0
-50 46 47 48 0
-51 46 47 48 0
-49 52 53 54 0
-50 52 53 54 0
-51 52 53 54 0
-49 56 57 0
-50 55 57 0
-51 55 56 0
-49 58 59 60 0
-50 58 59 60 0
-51 58 59 60 0
-49 61 62 63 0
-50 61 62 63 0
-51 61 62 63 0
-49 65 66 0
-50 64 66 0
-51 64 65 0
-49 67 68 69 0
-50 67 68 69 0
-51 67 68 69 0
-49 70 71 72 0
-50 70 71 72 0
-51 70 71 72 0
-49 73 74 75 0
-50 73 74 75 0
-51 73 74 75 0
-49 77 78 0
-50 76 78 0
-51 76 77 0
-49 79 80 81 0
-50 79 80 81 0
-51 79 80 81 0
-49 82 83 84 0
-50 82 83 84 0
-51 82 83 84 0
-49 85 86 87 0
-50 85 86 87 0
-51 85 86 87 0
-49 88 89 90 0
-50 88 89 90 0
-51 88 89 90 0
-52 1 2 3 0
-53 1 2 3 0
-54 1 2 3 0
-52 4 5 6 0
-53 4 5 6 0
-54 4 5 6 0
-52 8 9 0
-53 7 9 0
-54 7 8 0
-52 10 11 12 0
-53 10 11 12 0
-54 10 11 12 0
-52 13 14 15 0
-53 13 14 15 0
-54 13 14 15 0
-52 17 18 0
-53 16 18 0
-54 16 17 0
-52 20 21 0
-53 19 21 0
-54 19 20 0
-52 22 23 24 0
-53 22 23 24 0
-54 22 23 24 0
-52 25 26 27 0
-53 25 26 27 0
-54 25 26 27 0
-52 28 29 30 0
-53 28 29 30 0
-54 28 29 30 0
-52 31 32 33 0
-53 31 32 33 0
-54 31 32 33 0
-52 34 35 36 0
-53 34 35 36 0
-54 34 35 36 0
-52 37 38 39 0
-53 37 38 39 0
-54 37 38 39 0
-52 40 41 42 0
-53 40 41 42 0
-54 40 41 42 0
-52 43 44 45 0
-53 43 44 45 0
-54 43 44 45 0
-52 47 48 0
-53 46 48 0
-54 46 47 0
-52 49 50 51 0
-53 49 50 51 0
-54 49 50 51 0
-52 55 56 57 0
-53 55 56 57 0
-54 55 56 57 0
-52 58 59 60 0
-53 58 59 60 0
-54 58 59 60 0
-52 61 62 63 0
-53 61 62 63 0
-54 61 62 63 0
-52 64 65 66 0
-53 64 65 66 0
-54 64 65 66 0
-52 67 68 69 0
-53 67 68 69 0
-54 67 68 69 0
-52 70 71 72 0
-53 70 71 72 0
-54 70 71 72 0
-52 74 75 0
-53 73 75 0
-54 73 74 0
-52 76 77 78 0
-53 76 77 78 0
-54 76 77 78 0
-52 80 81 0
-53 79 81 0
-54 79 80 0
-52 82 83 84 0
-53 82 83 84 0
-54 82 83 84 0
-52 86 87 0
-53 85 87 0
-54 85 86 0
-52 88 89 90 0
-53 88 89 90 0
-54 88 89 90 0
-55 1 2 3 0
-56 1 2 3 0
-57 1 2 3 0
-55 4 5 6 0
-56 4 5 6 0
-57 4 5 6 0
-55 8 9 0
-56 7 9 0
-57 7 8 0
-55 10 11 12 0
-56 10 11 12 0
-57 10 11 12 0
-55 13 14 15 0
-56 13 14 15 0
-57 13 14 15 0
-55 16 17 18 0
-56 16 17 18 0
-57 16 17 18 0
-55 19 20 21 0
-56 19 20 21 0
-57 19 20 21 0
-55 22 23 24 0
-56 22 23 24 0
-57 22 23 24 0
-55 26 27 0
-56 25 27 0
-57 25 26 0
-55 28 29 30 0
-56 28 29 30 0
-57 28 29 30 0
-55 31 32 33 0
-56 31 32 33 0
-57 31 32 33 0
-55 34 35 36 0
-56 34 35 36 0
-57 34 35 36 0
-55 38 39 0
-56 37 39 0
-57 37 38 0
-55 41 42 0
-56 40 42 0
-57 40 41 0
-55 43 44 45 0
-56 43 44 45 0
-57 43 44 45 0
-55 46 47 48 0
-56 46 47 48 0
-57 46 47 48 0
-55 50 51 0
-56 49 51 0
-57 49 50 0
-55 52 53 54 0
-56 52 53 54 0
-57 52 53 54 0
-55 58 59 60 0
-56 58 59 60 0
-57 58 59 60 0
-55 61 62 63 0
-56 61 62 63 0
-57 61 62 63 0
-55 64 65 66 0
-56 64 65 66 0
-57 64 65 66 0
-55 67 68 69 0
-56 67 68 69 0
-57 67 68 69 0
-55 70 71 72 0
-56 70 71 72 0
-57 70 71 72 0
-55 73 74 75 0
-56 73 74 75 0
-57 73 74 75 0
-55 76 77 78 0
-56 76 77 78 0
-57 76 77 78 0
-55 80 81 0
-56 79 81 0
-57 79 80 0
-55 83 84 0
-56 82 84 0
-57 82 83 0
-55 85 86 87 0
-56 85 86 87 0
-57 85 86 87 0
-55 88 89 90 0
-56 88 89 90 0
-57 88 89 90 0
-58 1 2 3 0
-59 1 2 3 0
-60 1 2 3 0
-58 4 5 6 0
-59 4 5 6 0
-60 4 5 6 0
-58 7 8 9 0
-59 7 8 9 0
-60 7 8 9 0
-58 10 11 12 0
-59 10 11 12 0
-60 10 11 12 0
-58 13 14 15 0
-59 13 14 15 0
-60 13 14 15 0
-58 16 17 18 0
-59 16 17 18 0
-60 16 17 18 0
-58 19 20 21 0
-59 19 20 21 0
-60 19 20 21 0
-58 22 23 24 0
-59 22 23 24 0
-60 22 23 24 0
-58 25 26 27 0
-59 25 26 27 0
-60 25 26 27 0
-58 28 29 30 0
-59 28 29 30 0
-60 28 29 30 0
-58 31 32 33 0
-59 31 32 33 0
-60 31 32 33 0
-58 34 35 36 0
-59 34 35 36 0
-60 34 35 36 0
-58 37 38 39 0
-59 37 38 39 0
-60 37 38 39 0
-58 41 42 0
-59 40 42 0
-60 40 41 0
-58 43 44 45 0
-59 43 44 45 0
-60 43 44 45 0
-58 46 47 48 0
-59 46 47 48 0
-60 46 47 48 0
-58 49 50 51 0
-59 49 50 51 0
-60 49 50 51 0
-58 52 53 54 0
-59 52 53 54 0
-60 52 53 54 0
-58 55 56 57 0
-59 55 56 57 0
-60 55 56 57 0
-58 61 62 63 0
-59 61 62 63 0
-60 61 62 63 0
-58 64 65 66 0
-59 64 65 66 0
-60 64 65 66 0
-58 68 69 0
-59 67 69 0
-60 67 68 0
-58 70 71 72 0
-59 70 71 72 0
-60 70 71 72 0
-58 73 74 75 0
-59 73 74 75 0
-60 73 74 75 0
-58 77 78 0
-59 76 78 0
-60 76 77 0
-58 80 81 0
-59 79 81 0
-60 79 80 0
-58 82 83 84 0
-59 82 83 84 0
-60 82 83 84 0
-58 85 86 87 0
-59 85 86 87 0
-60 85 86 87 0
-58 88 89 90 0
-59 88 89 90 0
-60 88 89 90 0
-61 1 2 3 0
-62 1 2 3 0
-63 1 2 3 0
-61 4 5 6 0
-62 4 5 6 0
-63 4 5 6 0
-61 7 8 9 0
-62 7 8 9 0
-63 7 8 9 0
-61 11 12 0
-62 10 12 0
-63 10 11 0
-61 13 14 15 0
-62 13 14 15 0
-63 13 14 15 0
-61 16 17 18 0
-62 16 17 18 0
-63 16 17 18 0
-61 19 20 21 0
-62 19 20 21 0
-63 19 20 21 0
-61 22 23 24 0
-62 22 23 24 0
-63 22 23 24 0
-61 25 26 27 0
-62 25 26 27 0
-63 25 26 27 0
-61 28 29 30 0
-62 28 29 30 0
-63 28 29 30 0
-61 31 32 33 0
-62 31 32 33 0
-63 31 32 33 0
-61 34 35 36 0
-62 34 35 36 0
-63 34 35 36 0
-61 37 38 39 0
-62 37 38 39 0
-63 37 38 39 0
-61 40 41 42 0
-62 40 41 42 0
-63 40 41 42 0
-61 43 44 45 0
-62 43 44 45 0
-63 43 44 45 0
-61 46 47 48 0
-62 46 47 48 0
-63 46 47 48 0
-61 49 50 51 0
-62 49 50 51 0
-63 49 50 51 0
-61 52 53 54 0
-62 52 53 54 0
-63 52 53 54 0
-61 55 56 57 0
-62 55 56 57 0
-63 55 56 57 0
-61 58 59 60 0
-62 58 59 60 0
-63 58 59 60 0
-61 64 65 66 0
-62 64 65 66 0
-63 64 65 66 0
-61 67 68 69 0
-62 67 68 69 0
-63 67 68 69 0
-61 70 71 72 0
-62 70 71 72 0
-63 70 71 72 0
-61 73 74 75 0
-62 73 74 75 0
-63 73 74 75 0
-61 76 77 78 0
-62 76 77 78 0
-63 76 77 78 0
-61 79 80 81 0
-62 79 80 81 0
-63 79 80 81 0
-61 82 83 84 0
-62 82 83 84 0
-63 82 83 84 0
-61 86 87 0
-62 85 87 0
-63 85 86 0
-61 88 89 90 0
-62 88 89 90 0
-63 88 89 90 0
-64 2 3 0
-65 1 3 0
-66 1 2 0
-64 5 6 0
-65 4 6 0
-66 4 5 0
-64 8 9 0
-65 7 9 0
-66 7 8 0
-64 11 12 0
-65 10 12 0
-66 10 11 0
-64 13 14 15 0
-65 13 14 15 0
-66 13 14 15 0
-64 16 17 18 0
-65 16 17 18 0
-66 16 17 18 0
-64 20 21 0
-65 19 21 0
-66 19 20 0
-64 22 23 24 0
-65 22 23 24 0
-66 22 23 24 0
-64 25 26 27 0
-65 25 26 27 0
-66 25 26 27 0
-64 29 30 0
-65 28 30 0
-66 28 29 0
-64 31 32 33 0
-65 31 32 33 0
-66 31 32 33 0
-64 35 36 0
-65 34 36 0
-66 34 35 0
-64 37 38 39 0
-65 37 38 39 0
-66 37 38 39 0
-64 40 41 42 0
-65 40 41 42 0
-66 40 41 42 0
-64 43 44 45 0
-65 43 44 45 0
-66 43 44 45 0
-64 46 47 48 0
-65 46 47 48 0
-66 46 47 48 0
-64 50 51 0
-65 49 51 0
-66 49 50 0
-64 52 53 54 0
-65 52 53 54 0
-66 52 53 54 0
-64 55 56 57 0
-65 55 56 57 0
-66 55 56 57 0
-64 58 59 60 0
-65 58 59 60 0
-66 58 59 60 0
-64 61 62 63 0
-65 61 62 63 0
-66 61 62 63 0
-64 68 69 0
-65 67 69 0
-66 67 68 0
-64 70 71 72 0
-65 70 71 72 0
-66 70 71 72 0
-64 74 75 0
-65 73 75 0
-66 73 74 0
-64 76 77 78 0
-65 76 77 78 0
-66 76 77 78 0
-64 79 80 81 0
-65 79 80 81 0
-66 79 80 81 0
-64 83 84 0
-65 82 84 0
-66 82 83 0
-64 85 86 87 0
-65 85 86 87 0
-66 85 86 87 0
-64 88 89 90 0
-65 88 89 90 0
-66 88 89 90 0
-67 1 2 3 0
-68 1 2 3 0
-69 1 2 3 0
-67 5 6 0
-68 4 6 0
-69 4 5 0
-67 7 8 9 0
-68 7 8 9 0
-69 7 8 9 0
-67 10 11 12 0
-68 10 11 12 0
-69 10 11 12 0
-67 13 14 15 0
-68 13 14 15 0
-69 13 14 15 0
-67 16 17 18 0
-68 16 17 18 0
-69 16 17 18 0
-67 19 20 21 0
-68 19 20 21 0
-69 19 20 21 0
-67 22 23 24 0
-68 22 23 24 0
-69 22 23 24 0
-67 25 26 27 0
-68 25 26 27 0
-69 25 26 27 0
-67 28 29 30 0
-68 28 29 30 0
-69 28 29 30 0
-67 31 32 33 0
-68 31 32 33 0
-69 31 32 33 0
-67 35 36 0
-68 34 36 0
-69 34 35 0
-67 37 38 39 0
-68 37 38 39 0
-69 37 38 39 0
-67 40 41 42 0
-68 40 41 42 0
-69 40 41 42 0
-67 43 44 45 0
-68 43 44 45 0
-69 43 44 45 0
-67 46 47 48 0
-68 46 47 48 0
-69 46 47 48 0
-67 49 50 51 0
-68 49 50 51 0
-69 49 50 51 0
-67 52 53 54 0
-68 52 53 54 0
-69 52 53 54 0
-67 55 56 57 0
-68 55 56 57 0
-69 55 56 57 0
-67 59 60 0
-68 58 60 0
-69 58 59 0
-67 61 62 63 0
-68 61 62 63 0
-69 61 62 63 0
-67 65 66 0
-68 64 66 0
-69 64 65 0
-67 70 71 72 0
-68 70 71 72 0
-69 70 71 72 0
-67 73 74 75 0
-68 73 74 75 0
-69 73 74 75 0
-67 76 77 78 0
-68 76 77 78 0
-69 76 77 78 0
-67 80 81 0
-68 79 81 0
-69 79 80 0
-67 82 83 84 0
-68 82 83 84 0
-69 82 83 84 0
-67 85 86 87 0
-68 85 86 87 0
-69 85 86 87 0
-67 89 90 0
-68 88 90 0
-69 88 89 0
-70 1 2 3 0
-71 1 2 3 0
-72 1 2 3 0
-70 4 5 6 0
-71 4 5 6 0
-72 4 5 6 0
-70 7 8 9 0
-71 7 8 9 0
-72 7 8 9 0
-70 11 12 0
-71 10 12 0
-72 10 11 0
-70 13 14 15 0
-71 13 14 15 0
-72 13 14 15 0
-70 16 17 18 0
-71 16 17 18 0
-72 16 17 18 0
-70 19 20 21 0
-71 19 20 21 0
-72 19 20 21 0
-70 23 24 0
-71 22 24 0
-72 22 23 0
-70 25 26 27 0
-71 25 26 27 0
-72 25 26 27 0
-70 28 29 30 0
-71 28 29 30 0
-72 28 29 30 0
-70 31 32 33 0
-71 31 32 33 0
-72 31 32 33 0
-70 34 35 36 0
-71 34 35 36 0
-72 34 35 36 0
-70 37 38 39 0
-71 37 38 39 0
-72 37 38 39 0
-70 40 41 42 0
-71 40 41 42 0
-72 40 41 42 0
-70 43 44 45 0
-71 43 44 45 0
-72 43 44 45 0
-70 47 48 0
-71 46 48 0
-72 46 47 0
-70 49 50 51 0
-71 49 50 51 0
-72 49 50 51 0
-70 52 53 54 0
-71 52 53 54 0
-72 52 53 54 0
-70 55 56 57 0
-71 55 56 57 0
-72 55 56 57 0
-70 58 59 60 0
-71 58 59 60 0
-72 58 59 60 0
-70 61 62 63 0
-71 61 62 63 0
-72 61 62 63 0
-70 64 65 66 0
-71 64 65 66 0
-72 64 65 66 0
-70 67 68 69 0
-71 67 68 69 0
-72 67 68 69 0
-70 73 74 75 0
-71 73 74 75 0
-72 73 74 75 0
-70 76 77 78 0
-71 76 77 78 0
-72 76 77 78 0
-70 79 80 81 0
-71 79 80 81 0
-72 79 80 81 0
-70 82 83 84 0
-71 82 83 84 0
-72 82 83 84 0
-70 85 86 87 0
-71 85 86 87 0
-72 85 86 87 0
-70 89 90 0
-71 88 90 0
-72 88 89 0
-73 2 3 0
-74 1 3 0
-75 1 2 0
-73 4 5 6 0
-74 4 5 6 0
-75 4 5 6 0
-73 7 8 9 0
-74 7 8 9 0
-75 7 8 9 0
-73 11 12 0
-74 10 12 0
-75 10 11 0
-73 13 14 15 0
-74 13 14 15 0
-75 13 14 15 0
-73 16 17 18 0
-74 16 17 18 0
-75 16 17 18 0
-73 20 21 0
-74 19 21 0
-75 19 20 0
-73 23 24 0
-74 22 24 0
-75 22 23 0
-73 25 26 27 0
-74 25 26 27 0
-75 25 26 27 0
-73 28 29 30 0
-74 28 29 30 0
-75 28 29 30 0
-73 31 32 33 0
-74 31 32 33 0
-75 31 32 33 0
-73 34 35 36 0
-74 34 35 36 0
-75 34 35 36 0
-73 38 39 0
-74 37 39 0
-75 37 38 0
-73 40 41 42 0
-74 40 41 42 0
-75 40 41 42 0
-73 44 45 0
-74 43 45 0
-75 43 44 0
-73 46 47 48 0
-74 46 47 48 0
-75 46 47 48 0
-73 49 50 51 0
-74 49 50 51 0
-75 49 50 51 0
-73 53 54 0
-74 52 54 0
-75 52 53 0
-73 55 56 57 0
-74 55 56 57 0
-75 55 56 57 0
-73 58 59 60 0
-74 58 59 60 0
-75 58 59 60 0
-73 61 62 63 0
-74 61 62 63 0
-75 61 62 63 0
-73 65 66 0
-74 64 66 0
-75 64 65 0
-73 67 68 69 0
-74 67 68 69 0
-75 67 68 69 0
-73 70 71 72 0
-74 70 71 72 0
-75 70 71 72 0
-73 76 77 78 0
-74 76 77 78 0
-75 76 77 78 0
-73 79 80 81 0
-74 79 80 81 0
-75 79 80 81 0
-73 82 83 84 0
-74 82 83 84 0
-75 82 83 84 0
-73 85 86 87 0
-74 85 86 87 0
-75 85 86 87 0
-73 88 89 90 0
-74 88 89 90 0
-75 88 89 90 0
-76 1 2 3 0
-77 1 2 3 0
-78 1 2 3 0
-76 4 5 6 0
-77 4 5 6 0
-78 4 5 6 0
-76 7 8 9 0
-77 7 8 9 0
-78 7 8 9 0
-76 10 11 12 0
-77 10 11 12 0
-78 10 11 12 0
-76 13 14 15 0
-77 13 14 15 0
-78 13 14 15 0
-76 17 18 0
-77 16 18 0
-78 16 17 0
-76 19 20 21 0
-77 19 20 21 0
-78 19 20 21 0
-76 22 23 24 0
-77 22 23 24 0
-78 22 23 24 0
-76 25 26 27 0
-77 25 26 27 0
-78 25 26 27 0
-76 28 29 30 0
-77 28 29 30 0
-78 28 29 30 0
-76 31 32 33 0
-77 31 32 33 0
-78 31 32 33 0
-76 34 35 36 0
-77 34 35 36 0
-78 34 35 36 0
-76 37 38 39 0
-77 37 38 39 0
-78 37 38 39 0
-76 40 41 42 0
-77 40 41 42 0
-78 40 41 42 0
-76 43 44 45 0
-77 43 44 45 0
-78 43 44 45 0
-76 46 47 48 0
-77 46 47 48 0
-78 46 47 48 0
-76 50 51 0
-77 49 51 0
-78 49 50 0
-76 52 53 54 0
-77 52 53 54 0
-78 52 53 54 0
-76 55 56 57 0
-77 55 56 57 0
-78 55 56 57 0
-76 59 60 0
-77 58 60 0
-78 58 59 0
-76 61 62 63 0
-77 61 62 63 0
-78 61 62 63 0
-76 64 65 66 0
-77 64 65 66 0
-78 64 65 66 0
-76 67 68 69 0
-77 67 68 69 0
-78 67 68 69 0
-76 70 71 72 0
-77 70 71 72 0
-78 70 71 72 0
-76 73 74 75 0
-77 73 74 75 0
-78 73 74 75 0
-76 79 80 81 0
-77 79 80 81 0
-78 79 80 81 0
-76 82 83 84 0
-77 82 83 84 0
-78 82 83 84 0
-76 86 87 0
-77 85 87 0
-78 85 86 0
-76 88 89 90 0
-77 88 89 90 0
-78 88 89 90 0
-79 1 2 3 0
-80 1 2 3 0
-81 1 2 3 0
-79 4 5 6 0
-80 4 5 6 0
-81 4 5 6 0
-79 7 8 9 0
-80 7 8 9 0
-81 7 8 9 0
-79 11 12 0
-80 10 12 0
-81 10 11 0
-79 14 15 0
-80 13 15 0
-81 13 14 0
-79 16 17 18 0
-80 16 17 18 0
-81 16 17 18 0
-79 19 20 21 0
-80 19 20 21 0
-81 19 20 21 0
-79 22 23 24 0
-80 22 23 24 0
-81 22 23 24 0
-79 25 26 27 0
-80 25 26 27 0
-81 25 26 27 0
-79 28 29 30 0
-80 28 29 30 0
-81 28 29 30 0
-79 31 32 33 0
-80 31 32 33 0
-81 31 32 33 0
-79 35 36 0
-80 34 36 0
-81 34 35 0
-79 37 38 39 0
-80 37 38 39 0
-81 37 38 39 0
-79 41 42 0
-80 40 42 0
-81 40 41 0
-79 44 45 0
-80 43 45 0
-81 43 44 0
-79 46 47 48 0
-80 46 47 48 0
-81 46 47 48 0
-79 49 50 51 0
-80 49 50 51 0
-81 49 50 51 0
-79 53 54 0
-80 52 54 0
-81 52 53 0
-79 56 57 0
-80 55 57 0
-81 55 56 0
-79 59 60 0
-80 58 60 0
-81 58 59 0
-79 61 62 63 0
-80 61 62 63 0
-81 61 62 63 0
-79 64 65 66 0
-80 64 65 66 0
-81 64 65 66 0
-79 68 69 0
-80 67 69 0
-81 67 68 0
-79 70 71 72 0
-80 70 71 72 0
-81 70 71 72 0
-79 73 74 75 0
-80 73 74 75 0
-81 73 74 75 0
-79 76 77 78 0
-80 76 77 78 0
-81 76 77 78 0
-79 82 83 84 0
-80 82 83 84 0
-81 82 83 84 0
-79 86 87 0
-80 85 87 0
-81 85 86 0
-79 88 89 90 0
-80 88 89 90 0
-81 88 89 90 0
-82 1 2 3 0
-83 1 2 3 0
-84 1 2 3 0
-82 4 5 6 0
-83 4 5 6 0
-84 4 5 6 0
-82 7 8 9 0
-83 7 8 9 0
-84 7 8 9 0
-82 10 11 12 0
-83 10 11 12 0
-84 10 11 12 0
-82 13 14 15 0
-83 13 14 15 0
-84 13 14 15 0
-82 16 17 18 0
-83 16 17 18 0
-84 16 17 18 0
-82 20 21 0
-83 19 21 0
-84 19 20 0
-82 22 23 24 0
-83 22 23 24 0
-84 22 23 24 0
-82 25 26 27 0
-83 25 26 27 0
-84 25 26 27 0
-82 28 29 30 0
-83 28 29 30 0
-84 28 29 30 0
-82 31 32 33 0
-83 31 32 33 0
-84 31 32 33 0
-82 35 36 0
-83 34 36 0
-84 34 35 0
-82 37 38 39 0
-83 37 38 39 0
-84 37 38 39 0
-82 40 41 42 0
-83 40 41 42 0
-84 40 41 42 0
-82 43 44 45 0
-83 43 44 45 0
-84 43 44 45 0
-82 46 47 48 0
-83 46 47 48 0
-84 46 47 48 0
-82 49 50 51 0
-83 49 50 51 0
-84 49 50 51 0
-82 52 53 54 0
-83 52 53 54 0
-84 52 53 54 0
-82 56 57 0
-83 55 57 0
-84 55 56 0
-82 58 59 60 0
-83 58 59 60 0
-84 58 59 60 0
-82 61 62 63 0
-83 61 62 63 0
-84 61 62 63 0
-82 65 66 0
-83 64 66 0
-84 64 65 0
-82 67 68 69 0
-83 67 68 69 0
-84 67 68 69 0
-82 70 71 72 0
-83 70 71 72 0
-84 70 71 72 0
-82 73 74 75 0
-83 73 74 75 0
-84 73 74 75 0
-82 76 77 78 0
-83 76 77 78 0
-84 76 77 78 0
-82 79 80 81 0
-83 79 80 81 0
-84 79 80 81 0
-82 85 86 87 0
-83 85 86 87 0
-84 85 86 87 0
-82 88 89 90 0
-83 88 89 90 0
-84 88 89 90 0
-85 1 2 3 0
-86 1 2 3 0
-87 1 2 3 0
-85 4 5 6 0
-86 4 5 6 0
-87 4 5 6 0
-85 7 8 9 0
-86 7 8 9 0
-87 7 8 9 0
-85 10 11 12 0
-86 10 11 12 0
-87 10 11 12 0
-85 13 14 15 0
-86 13 14 15 0
-87 13 14 15 0
-85 16 17 18 0
-86 16 17 18 0
-87 16 17 18 0
-85 19 20 21 0
-86 19 20 21 0
-87 19 20 21 0
-85 22 23 24 0
-86 22 23 24 0
-87 22 23 24 0
-85 25 26 27 0
-86 25 26 27 0
-87 25 26 27 0
-85 29 30 0
-86 28 30 0
-87 28 29 0
-85 31 32 33 0
-86 31 32 33 0
-87 31 32 33 0
-85 35 36 0
-86 34 36 0
-87 34 35 0
-85 38 39 0
-86 37 39 0
-87 37 38 0
-85 40 41 42 0
-86 40 41 42 0
-87 40 41 42 0
-85 43 44 45 0
-86 43 44 45 0
-87 43 44 45 0
-85 46 47 48 0
-86 46 47 48 0
-87 46 47 48 0
-85 49 50 51 0
-86 49 50 51 0
-87 49 50 51 0
-85 53 54 0
-86 52 54 0
-87 52 53 0
-85 55 56 57 0
-86 55 56 57 0
-87 55 56 57 0
-85 58 59 60 0
-86 58 59 60 0
-87 58 59 60 0
-85 62 63 0
-86 61 63 0
-87 61 62 0
-85 64 65 66 0
-86 64 65 66 0
-87 64 65 66 0
-85 67 68 69 0
-86 67 68 69 0
-87 67 68 69 0
-85 70 71 72 0
-86 70 71 72 0
-87 70 71 72 0
-85 73 74 75 0
-86 73 74 75 0
-87 73 74 75 0
-85 77 78 0
-86 76 78 0
-87 76 77 0
-85 80 81 0
-86 79 81 0
-87 79 80 0
-85 82 83 84 0
-86 82 83 84 0
-87 82 83 84 0
-85 89 90 0
-86 88 90 0
-87 88 89 0
-88 1 2 3 0
-89 1 2 3 0
-90 1 2 3 0
-88 4 5 6 0
-89 4 5 6 0
-90 4 5 6 0
-88 7 8 9 0
-89 7 8 9 0
-90 7 8 9 0
-88 10 11 12 0
-89 10 11 12 0
-90 10 11 12 0
-88 13 14 15 0
-89 13 14 15 0
-90 13 14 15 0
-88 16 17 18 0
-89 16 17 18 0
-90 16 17 18 0
-88 19 20 21 0
-89 19 20 21 0
-90 19 20 21 0
-88 22 23 24 0
-89 22 23 24 0
-90 22 23 24 0
-88 25 26 27 0
-89 25 26 27 0
-90 25 26 27 0
-88 28 29 30 0
-89 28 29 30 0
-90 28 29 30 0
-88 31 32 33 0
-89 31 32 33 0
-90 31 32 33 0
-88 34 35 36 0
-89 34 35 36 0
-90 34 35 36 0
-88 38 39 0
-89 37 39 0
-90 37 38 0
-88 41 42 0
-89 40 42 0
-90 40 41 0
-88 43 44 45 0
-89 43 44 45 0
-90 43 44 45 0
-88 46 47 48 0
-89 46 47 48 0
-90 46 47 48 0
-88 49 50 51 0
-89 49 50 51 0
-90 49 50 51 0
-88 52 53 54 0
-89 52 53 54 0
-90 52 53 54 0
-88 55 56 57 0
-89 55 56 57 0
-90 55 56 57 0
-88 58 59 60 0
-89 58 59 60 0
-90 58 59 60 0
-88 61 62 63 0
-89 61 62 63 0
-90 61 62 63 0
-88 64 65 66 0
-89 64 65 66 0
-90 64 65 66 0
-88 68 69 0
-89 67 69 0
-90 67 68 0
-88 71 72 0
-89 70 72 0
-90 70 71 0
-88 73 74 75 0
-89 73 74 75 0
-90 73 74 75 0
-88 76 77 78 0
-89 76 77 78 0
-90 76 77 78 0
-88 79 80 81 0
-89 79 80 81 0
-90 79 80 81 0
-88 82 83 84 0
-89 82 83 84 0
-90 82 83 84 0
-88 86 87 0
-89 85 87 0
-90 85 86 0
